\ENCODING=ISO-8859-1
\Problem name: ilog.cplex

Minimize
 obj: 3.07787816046421 x.0.1.0 + 10.1142368372456 x.0.2.0
      + 3.26956253373836 x.0.3.0 + 3.61080289196388 x.0.4.0
      + 3.16664862489864 x.0.5.0 + 4.03891440528024 x.0.6.0
      + 10.6899044931704 x.0.7.0 + 3.81213640769077 x.0.8.0
      + 3.19072272811491 x.0.9.0 + 3.07787816046421 x.1.0.0
      + 7.29181264828321 x.1.2.0 + 0.22073639679289 x.1.3.0
      + 0.732792206290177 x.1.4.0 + 0.0985157013916342 x.1.5.0
      + 1.32924991367169 x.1.6.0 + 7.82921413903719 x.1.7.0
      + 3.57881208786084 x.1.8.0 + 1.57129239673123 x.1.9.0
      + 10.1142368372456 x.2.0.0 + 7.29181264828321 x.2.1.0
      + 7.17952570958264 x.2.3.0 + 7.1472463518541 x.2.4.0
      + 7.23439652886972 x.2.5.0 + 7.17274661814377 x.2.6.0
      + 0.627277084990099 x.2.7.0 + 7.70084730917142 x.2.8.0
      + 6.98344295267881 x.2.9.0 + 3.26956253373836 x.3.0.0
      + 0.22073639679289 x.3.1.0 + 7.17952570958264 x.3.2.0
      + 0.525851756473344 x.3.4.0 + 0.122801773940505 x.3.5.0
      + 1.12588724794872 x.3.6.0 + 7.70866741690654 x.3.7.0
      + 3.75367793097987 x.3.8.0 + 1.72477143057556 x.3.9.0
      + 3.61080289196388 x.4.0.0 + 0.732792206290177 x.4.1.0
      + 7.1472463518541 x.4.2.0 + 0.525851756473344 x.4.3.0
      + 0.642326623093261 x.4.5.0 + 0.600125355431685 x.4.6.0
      + 7.65128630519278 x.4.7.0 + 4.26881930091317 x.4.8.0
      + 2.22845298732649 x.4.9.0 + 3.16664862489864 x.5.0.0
      + 0.0985157013916342 x.5.1.0 + 7.23439652886972 x.5.2.0
      + 0.122801773940505 x.5.3.0 + 0.642326623093261 x.5.4.0
      + 1.24113110440621 x.5.6.0 + 7.76838151238354 x.5.7.0
      + 3.65112048424476 x.5.8.0 + 1.63193150734544 x.5.9.0
      + 4.03891440528024 x.6.0.0 + 1.32924991367169 x.6.1.0
      + 7.17274661814377 x.6.2.0 + 1.12588724794872 x.6.3.0
      + 0.600125355431685 x.6.4.0 + 1.24113110440621 x.6.5.0
      + 7.64487703171903 x.6.7.0 + 4.86187228809575 x.6.8.0
      + 2.81609891140948 x.6.9.0 + 10.6899044931704 x.7.0.0
      + 7.82921413903719 x.7.1.0 + 0.627277084990099 x.7.2.0
      + 7.70866741690654 x.7.3.0 + 7.65128630519278 x.7.4.0
      + 7.76838151238354 x.7.5.0 + 7.64487703171903 x.7.6.0
      + 8.32604544644198 x.7.8.0 + 7.57626219758941 x.7.9.0
      + 3.81213640769077 x.8.0.0 + 3.57881208786084 x.8.1.0
      + 7.70084730917142 x.8.2.0 + 3.75367793097987 x.8.3.0
      + 4.26881930091317 x.8.4.0 + 3.65112048424476 x.8.5.0
      + 4.86187228809575 x.8.6.0 + 8.32604544644198 x.8.7.0
      + 2.05046990696379 x.8.9.0 + 3.19072272811491 x.9.0.0
      + 1.57129239673123 x.9.1.0 + 6.98344295267881 x.9.2.0
      + 1.72477143057556 x.9.3.0 + 2.22845298732649 x.9.4.0
      + 1.63193150734544 x.9.5.0 + 2.81609891140948 x.9.6.0
      + 7.57626219758941 x.9.7.0 + 2.05046990696379 x.9.8.0
      + 3.07787816046421 x.0.1.1 + 10.1142368372456 x.0.2.1
      + 3.26956253373836 x.0.3.1 + 3.61080289196388 x.0.4.1
      + 3.16664862489864 x.0.5.1 + 4.03891440528024 x.0.6.1
      + 10.6899044931704 x.0.7.1 + 3.81213640769077 x.0.8.1
      + 3.19072272811491 x.0.9.1 + 3.07787816046421 x.1.0.1
      + 7.29181264828321 x.1.2.1 + 0.22073639679289 x.1.3.1
      + 0.732792206290177 x.1.4.1 + 0.0985157013916342 x.1.5.1
      + 1.32924991367169 x.1.6.1 + 7.82921413903719 x.1.7.1
      + 3.57881208786084 x.1.8.1 + 1.57129239673123 x.1.9.1
      + 10.1142368372456 x.2.0.1 + 7.29181264828321 x.2.1.1
      + 7.17952570958264 x.2.3.1 + 7.1472463518541 x.2.4.1
      + 7.23439652886972 x.2.5.1 + 7.17274661814377 x.2.6.1
      + 0.627277084990099 x.2.7.1 + 7.70084730917142 x.2.8.1
      + 6.98344295267881 x.2.9.1 + 3.26956253373836 x.3.0.1
      + 0.22073639679289 x.3.1.1 + 7.17952570958264 x.3.2.1
      + 0.525851756473344 x.3.4.1 + 0.122801773940505 x.3.5.1
      + 1.12588724794872 x.3.6.1 + 7.70866741690654 x.3.7.1
      + 3.75367793097987 x.3.8.1 + 1.72477143057556 x.3.9.1
      + 3.61080289196388 x.4.0.1 + 0.732792206290177 x.4.1.1
      + 7.1472463518541 x.4.2.1 + 0.525851756473344 x.4.3.1
      + 0.642326623093261 x.4.5.1 + 0.600125355431685 x.4.6.1
      + 7.65128630519278 x.4.7.1 + 4.26881930091317 x.4.8.1
      + 2.22845298732649 x.4.9.1 + 3.16664862489864 x.5.0.1
      + 0.0985157013916342 x.5.1.1 + 7.23439652886972 x.5.2.1
      + 0.122801773940505 x.5.3.1 + 0.642326623093261 x.5.4.1
      + 1.24113110440621 x.5.6.1 + 7.76838151238354 x.5.7.1
      + 3.65112048424476 x.5.8.1 + 1.63193150734544 x.5.9.1
      + 4.03891440528024 x.6.0.1 + 1.32924991367169 x.6.1.1
      + 7.17274661814377 x.6.2.1 + 1.12588724794872 x.6.3.1
      + 0.600125355431685 x.6.4.1 + 1.24113110440621 x.6.5.1
      + 7.64487703171903 x.6.7.1 + 4.86187228809575 x.6.8.1
      + 2.81609891140948 x.6.9.1 + 10.6899044931704 x.7.0.1
      + 7.82921413903719 x.7.1.1 + 0.627277084990099 x.7.2.1
      + 7.70866741690654 x.7.3.1 + 7.65128630519278 x.7.4.1
      + 7.76838151238354 x.7.5.1 + 7.64487703171903 x.7.6.1
      + 8.32604544644198 x.7.8.1 + 7.57626219758941 x.7.9.1
      + 3.81213640769077 x.8.0.1 + 3.57881208786084 x.8.1.1
      + 7.70084730917142 x.8.2.1 + 3.75367793097987 x.8.3.1
      + 4.26881930091317 x.8.4.1 + 3.65112048424476 x.8.5.1
      + 4.86187228809575 x.8.6.1 + 8.32604544644198 x.8.7.1
      + 2.05046990696379 x.8.9.1 + 3.19072272811491 x.9.0.1
      + 1.57129239673123 x.9.1.1 + 6.98344295267881 x.9.2.1
      + 1.72477143057556 x.9.3.1 + 2.22845298732649 x.9.4.1
      + 1.63193150734544 x.9.5.1 + 2.81609891140948 x.9.6.1
      + 7.57626219758941 x.9.7.1 + 2.05046990696379 x.9.8.1
Subject To
 c1:    x.1.0.0 + x.1.2.0 + x.1.3.0 + x.1.4.0 + x.1.5.0 + x.1.6.0 + x.1.7.0
        + x.1.8.0 + x.1.9.0 + x.1.0.1 + x.1.2.1 + x.1.3.1 + x.1.4.1 + x.1.5.1
        + x.1.6.1 + x.1.7.1 + x.1.8.1 + x.1.9.1  = 1
 c3:    x.2.0.0 + x.2.1.0 + x.2.3.0 + x.2.4.0 + x.2.5.0 + x.2.6.0 + x.2.7.0
        + x.2.8.0 + x.2.9.0 + x.2.0.1 + x.2.1.1 + x.2.3.1 + x.2.4.1 + x.2.5.1
        + x.2.6.1 + x.2.7.1 + x.2.8.1 + x.2.9.1  = 1
 c5:    x.3.0.0 + x.3.1.0 + x.3.2.0 + x.3.4.0 + x.3.5.0 + x.3.6.0 + x.3.7.0
        + x.3.8.0 + x.3.9.0 + x.3.0.1 + x.3.1.1 + x.3.2.1 + x.3.4.1 + x.3.5.1
        + x.3.6.1 + x.3.7.1 + x.3.8.1 + x.3.9.1  = 1
 c7:    x.4.0.0 + x.4.1.0 + x.4.2.0 + x.4.3.0 + x.4.5.0 + x.4.6.0 + x.4.7.0
        + x.4.8.0 + x.4.9.0 + x.4.0.1 + x.4.1.1 + x.4.2.1 + x.4.3.1 + x.4.5.1
        + x.4.6.1 + x.4.7.1 + x.4.8.1 + x.4.9.1  = 1
 c9:    x.1.0.0 + x.1.2.0 + x.1.3.0 + x.1.4.0 + x.1.5.0 + x.1.6.0 + x.1.7.0
        + x.1.8.0 + x.1.9.0 - x.5.0.0 - x.5.1.0 - x.5.2.0 - x.5.3.0 - x.5.4.0
        - x.5.6.0 - x.5.7.0 - x.5.8.0 - x.5.9.0  = 0
 c11:   x.1.0.1 + x.1.2.1 + x.1.3.1 + x.1.4.1 + x.1.5.1 + x.1.6.1 + x.1.7.1
        + x.1.8.1 + x.1.9.1 - x.5.0.1 - x.5.1.1 - x.5.2.1 - x.5.3.1 - x.5.4.1
        - x.5.6.1 - x.5.7.1 - x.5.8.1 - x.5.9.1  = 0
 c13:   x.2.0.0 + x.2.1.0 + x.2.3.0 + x.2.4.0 + x.2.5.0 + x.2.6.0 + x.2.7.0
        + x.2.8.0 + x.2.9.0 - x.6.0.0 - x.6.1.0 - x.6.2.0 - x.6.3.0 - x.6.4.0
        - x.6.5.0 - x.6.7.0 - x.6.8.0 - x.6.9.0  = 0
 c15:   x.2.0.1 + x.2.1.1 + x.2.3.1 + x.2.4.1 + x.2.5.1 + x.2.6.1 + x.2.7.1
        + x.2.8.1 + x.2.9.1 - x.6.0.1 - x.6.1.1 - x.6.2.1 - x.6.3.1 - x.6.4.1
        - x.6.5.1 - x.6.7.1 - x.6.8.1 - x.6.9.1  = 0
 c17:   x.3.0.0 + x.3.1.0 + x.3.2.0 + x.3.4.0 + x.3.5.0 + x.3.6.0 + x.3.7.0
        + x.3.8.0 + x.3.9.0 - x.7.0.0 - x.7.1.0 - x.7.2.0 - x.7.3.0 - x.7.4.0
        - x.7.5.0 - x.7.6.0 - x.7.8.0 - x.7.9.0  = 0
 c19:   x.3.0.1 + x.3.1.1 + x.3.2.1 + x.3.4.1 + x.3.5.1 + x.3.6.1 + x.3.7.1
        + x.3.8.1 + x.3.9.1 - x.7.0.1 - x.7.1.1 - x.7.2.1 - x.7.3.1 - x.7.4.1
        - x.7.5.1 - x.7.6.1 - x.7.8.1 - x.7.9.1  = 0
 c21:   x.4.0.0 + x.4.1.0 + x.4.2.0 + x.4.3.0 + x.4.5.0 + x.4.6.0 + x.4.7.0
        + x.4.8.0 + x.4.9.0 - x.8.0.0 - x.8.1.0 - x.8.2.0 - x.8.3.0 - x.8.4.0
        - x.8.5.0 - x.8.6.0 - x.8.7.0 - x.8.9.0  = 0
 c23:   x.4.0.1 + x.4.1.1 + x.4.2.1 + x.4.3.1 + x.4.5.1 + x.4.6.1 + x.4.7.1
        + x.4.8.1 + x.4.9.1 - x.8.0.1 - x.8.1.1 - x.8.2.1 - x.8.3.1 - x.8.4.1
        - x.8.5.1 - x.8.6.1 - x.8.7.1 - x.8.9.1  = 0
 c25:   x.0.1.0 + x.0.2.0 + x.0.3.0 + x.0.4.0 + x.0.5.0 + x.0.6.0 + x.0.7.0
        + x.0.8.0 + x.0.9.0  = 1
 c26:   x.0.1.1 + x.0.2.1 + x.0.3.1 + x.0.4.1 + x.0.5.1 + x.0.6.1 + x.0.7.1
        + x.0.8.1 + x.0.9.1  = 1
 c27:   x.0.1.0 - x.1.0.0 - x.1.2.0 - x.1.3.0 - x.1.4.0 - x.1.5.0 - x.1.6.0
        - x.1.7.0 - x.1.8.0 - x.1.9.0 + x.2.1.0 + x.3.1.0 + x.4.1.0 + x.5.1.0
        + x.6.1.0 + x.7.1.0 + x.8.1.0 + x.9.1.0  = 0
 c29:   x.0.2.0 + x.1.2.0 - x.2.0.0 - x.2.1.0 - x.2.3.0 - x.2.4.0 - x.2.5.0
        - x.2.6.0 - x.2.7.0 - x.2.8.0 - x.2.9.0 + x.3.2.0 + x.4.2.0 + x.5.2.0
        + x.6.2.0 + x.7.2.0 + x.8.2.0 + x.9.2.0  = 0
 c31:   x.0.3.0 + x.1.3.0 + x.2.3.0 - x.3.0.0 - x.3.1.0 - x.3.2.0 - x.3.4.0
        - x.3.5.0 - x.3.6.0 - x.3.7.0 - x.3.8.0 - x.3.9.0 + x.4.3.0 + x.5.3.0
        + x.6.3.0 + x.7.3.0 + x.8.3.0 + x.9.3.0  = 0
 c33:   x.0.4.0 + x.1.4.0 + x.2.4.0 + x.3.4.0 - x.4.0.0 - x.4.1.0 - x.4.2.0
        - x.4.3.0 - x.4.5.0 - x.4.6.0 - x.4.7.0 - x.4.8.0 - x.4.9.0 + x.5.4.0
        + x.6.4.0 + x.7.4.0 + x.8.4.0 + x.9.4.0  = 0
 c35:   x.0.5.0 + x.1.5.0 + x.2.5.0 + x.3.5.0 + x.4.5.0 - x.5.0.0 - x.5.1.0
        - x.5.2.0 - x.5.3.0 - x.5.4.0 - x.5.6.0 - x.5.7.0 - x.5.8.0 - x.5.9.0
        + x.6.5.0 + x.7.5.0 + x.8.5.0 + x.9.5.0  = 0
 c37:   x.0.6.0 + x.1.6.0 + x.2.6.0 + x.3.6.0 + x.4.6.0 + x.5.6.0 - x.6.0.0
        - x.6.1.0 - x.6.2.0 - x.6.3.0 - x.6.4.0 - x.6.5.0 - x.6.7.0 - x.6.8.0
        - x.6.9.0 + x.7.6.0 + x.8.6.0 + x.9.6.0  = 0
 c39:   x.0.7.0 + x.1.7.0 + x.2.7.0 + x.3.7.0 + x.4.7.0 + x.5.7.0 + x.6.7.0
        - x.7.0.0 - x.7.1.0 - x.7.2.0 - x.7.3.0 - x.7.4.0 - x.7.5.0 - x.7.6.0
        - x.7.8.0 - x.7.9.0 + x.8.7.0 + x.9.7.0  = 0
 c41:   x.0.8.0 + x.1.8.0 + x.2.8.0 + x.3.8.0 + x.4.8.0 + x.5.8.0 + x.6.8.0
        + x.7.8.0 - x.8.0.0 - x.8.1.0 - x.8.2.0 - x.8.3.0 - x.8.4.0 - x.8.5.0
        - x.8.6.0 - x.8.7.0 - x.8.9.0 + x.9.8.0  = 0
 c43:   x.0.1.1 - x.1.0.1 - x.1.2.1 - x.1.3.1 - x.1.4.1 - x.1.5.1 - x.1.6.1
        - x.1.7.1 - x.1.8.1 - x.1.9.1 + x.2.1.1 + x.3.1.1 + x.4.1.1 + x.5.1.1
        + x.6.1.1 + x.7.1.1 + x.8.1.1 + x.9.1.1  = 0
 c45:   x.0.2.1 + x.1.2.1 - x.2.0.1 - x.2.1.1 - x.2.3.1 - x.2.4.1 - x.2.5.1
        - x.2.6.1 - x.2.7.1 - x.2.8.1 - x.2.9.1 + x.3.2.1 + x.4.2.1 + x.5.2.1
        + x.6.2.1 + x.7.2.1 + x.8.2.1 + x.9.2.1  = 0
 c47:   x.0.3.1 + x.1.3.1 + x.2.3.1 - x.3.0.1 - x.3.1.1 - x.3.2.1 - x.3.4.1
        - x.3.5.1 - x.3.6.1 - x.3.7.1 - x.3.8.1 - x.3.9.1 + x.4.3.1 + x.5.3.1
        + x.6.3.1 + x.7.3.1 + x.8.3.1 + x.9.3.1  = 0
 c49:   x.0.4.1 + x.1.4.1 + x.2.4.1 + x.3.4.1 - x.4.0.1 - x.4.1.1 - x.4.2.1
        - x.4.3.1 - x.4.5.1 - x.4.6.1 - x.4.7.1 - x.4.8.1 - x.4.9.1 + x.5.4.1
        + x.6.4.1 + x.7.4.1 + x.8.4.1 + x.9.4.1  = 0
 c51:   x.0.5.1 + x.1.5.1 + x.2.5.1 + x.3.5.1 + x.4.5.1 - x.5.0.1 - x.5.1.1
        - x.5.2.1 - x.5.3.1 - x.5.4.1 - x.5.6.1 - x.5.7.1 - x.5.8.1 - x.5.9.1
        + x.6.5.1 + x.7.5.1 + x.8.5.1 + x.9.5.1  = 0
 c53:   x.0.6.1 + x.1.6.1 + x.2.6.1 + x.3.6.1 + x.4.6.1 + x.5.6.1 - x.6.0.1
        - x.6.1.1 - x.6.2.1 - x.6.3.1 - x.6.4.1 - x.6.5.1 - x.6.7.1 - x.6.8.1
        - x.6.9.1 + x.7.6.1 + x.8.6.1 + x.9.6.1  = 0
 c55:   x.0.7.1 + x.1.7.1 + x.2.7.1 + x.3.7.1 + x.4.7.1 + x.5.7.1 + x.6.7.1
        - x.7.0.1 - x.7.1.1 - x.7.2.1 - x.7.3.1 - x.7.4.1 - x.7.5.1 - x.7.6.1
        - x.7.8.1 - x.7.9.1 + x.8.7.1 + x.9.7.1  = 0
 c57:   x.0.8.1 + x.1.8.1 + x.2.8.1 + x.3.8.1 + x.4.8.1 + x.5.8.1 + x.6.8.1
        + x.7.8.1 - x.8.0.1 - x.8.1.1 - x.8.2.1 - x.8.3.1 - x.8.4.1 - x.8.5.1
        - x.8.6.1 - x.8.7.1 - x.8.9.1 + x.9.8.1  = 0
 c59:   x.0.9.0 + x.1.9.0 + x.2.9.0 + x.3.9.0 + x.4.9.0 + x.5.9.0 + x.6.9.0
        + x.7.9.0 + x.8.9.0  = 1
 c61:   x.0.9.1 + x.1.9.1 + x.2.9.1 + x.3.9.1 + x.4.9.1 + x.5.9.1 + x.6.9.1
        + x.7.9.1 + x.8.9.1  = 1
 c63:   10800000 x.0.0.0 <= 10440000
 c65:   10800000 x.0.0.1 <= 10440000
 c67:   10800000 x.0.1.0 + x181 - x189 <= 10070654.6207443
 c69:   10800000 x.0.1.1 + x185 - x191 <= 10070654.6207443
 c71:   10800000 x.0.2.0 + x181 - x193 <= 9226291.57953052
 c73:   10800000 x.0.2.1 + x185 - x195 <= 9226291.57953052
 c75:   10800000 x.0.3.0 + x181 - x197 <= 10047652.4959514
 c77:   10800000 x.0.3.1 + x185 - x199 <= 10047652.4959514
 c79:   10800000 x.0.4.0 + x181 - x201 <= 10006703.6529643
 c81:   10800000 x.0.4.1 + x185 - x203 <= 10006703.6529643
 c83:   10800000 x.0.5.0 + x181 - x205 <= 10060002.1650122
 c85:   10800000 x.0.5.1 + x185 - x207 <= 10060002.1650122
 c87:   10800000 x.0.6.0 + x181 - x209 <= 9955330.27136637
 c89:   10800000 x.0.6.1 + x185 - x211 <= 9955330.27136637
 c91:   10800000 x.0.7.0 + x181 - x213 <= 9157211.46081956
 c93:   10800000 x.0.7.1 + x185 - x215 <= 9157211.46081956
 c95:   10800000 x.0.8.0 + x181 - x217 <= 9982543.63107711
 c97:   10800000 x.0.8.1 + x185 - x219 <= 9982543.63107711
 c99:   10800000 x.0.9.0 + x181 - x221 <= 10057113.2726262
 c101:  10800000 x.0.9.1 + x185 - x223 <= 10057113.2726262
 c103:  10800000 x.1.0.0 - x181 + x189 <= 10070654.6207443
 c105:  10800000 x.1.0.1 - x185 + x191 <= 10070654.6207443
 c107:  10800000 x.1.1.0 <= 10440000
 c109:  10800000 x.1.1.1 <= 10440000
 c111:  10800000 x.1.2.0 + x189 - x193 <= 9564982.48220601
 c113:  10800000 x.1.2.1 + x191 - x195 <= 9564982.48220601
 c115:  10800000 x.1.3.0 + x189 - x197 <= 10413511.6323849
 c117:  10800000 x.1.3.1 + x191 - x199 <= 10413511.6323849
 c119:  10800000 x.1.4.0 + x189 - x201 <= 10352064.9352452
 c121:  10800000 x.1.4.1 + x191 - x203 <= 10352064.9352452
 c123:  10800000 x.1.5.0 + x189 - x205 <= 10428178.115833
 c125:  10800000 x.1.5.1 + x191 - x207 <= 10428178.115833
 c127:  10800000 x.1.6.0 + x189 - x209 <= 10280490.0103594
 c129:  10800000 x.1.6.1 + x191 - x211 <= 10280490.0103594
 c131:  10800000 x.1.7.0 + x189 - x213 <= 9500494.30331554
 c133:  10800000 x.1.7.1 + x191 - x215 <= 9500494.30331554
 c135:  10800000 x.1.8.0 + x189 - x217 <= 10010542.5494567
 c137:  10800000 x.1.8.1 + x191 - x219 <= 10010542.5494567
 c139:  10800000 x.1.9.0 + x189 - x221 <= 10251444.9123923
 c141:  10800000 x.1.9.1 + x191 - x223 <= 10251444.9123923
 c143:  10800000 x.2.0.0 - x181 + x193 <= 9226291.57953052
 c145:  10800000 x.2.0.1 - x185 + x195 <= 9226291.57953052
 c147:  10800000 x.2.1.0 - x189 + x193 <= 9564982.48220601
 c149:  10800000 x.2.1.1 - x191 + x195 <= 9564982.48220601
 c151:  10800000 x.2.2.0 <= 10440000
 c153:  10800000 x.2.2.1 <= 10440000
 c155:  10800000 x.2.3.0 + x193 - x197 <= 9578456.91485008
 c157:  10800000 x.2.3.1 + x195 - x199 <= 9578456.91485008
 c159:  10800000 x.2.4.0 + x193 - x201 <= 9582330.43777751
 c161:  10800000 x.2.4.1 + x195 - x203 <= 9582330.43777751
 c163:  10800000 x.2.5.0 + x193 - x205 <= 9571872.41653563
 c165:  10800000 x.2.5.1 + x195 - x207 <= 9571872.41653563
 c167:  10800000 x.2.6.0 + x193 - x209 <= 9579270.40582275
 c169:  10800000 x.2.6.1 + x195 - x211 <= 9579270.40582275
 c171:  10800000 x.2.7.0 + x193 - x213 <= 10364726.7498012
 c173:  10800000 x.2.7.1 + x195 - x215 <= 10364726.7498012
 c175:  10800000 x.2.8.0 + x193 - x217 <= 9515898.32289943
 c177:  10800000 x.2.8.1 + x195 - x219 <= 9515898.32289943
 c179:  10800000 x.2.9.0 + x193 - x221 <= 9601986.84567854
 c181:  10800000 x.2.9.1 + x195 - x223 <= 9601986.84567854
 c183:  10800000 x.3.0.0 - x181 + x197 <= 10047652.4959514
 c185:  10800000 x.3.0.1 - x185 + x199 <= 10047652.4959514
 c187:  10800000 x.3.1.0 - x189 + x197 <= 10413511.6323849
 c189:  10800000 x.3.1.1 - x191 + x199 <= 10413511.6323849
 c191:  10800000 x.3.2.0 - x193 + x197 <= 9578456.91485008
 c193:  10800000 x.3.2.1 - x195 + x199 <= 9578456.91485008
 c195:  10800000 x.3.3.0 <= 10440000
 c197:  10800000 x.3.3.1 <= 10440000
 c199:  10800000 x.3.4.0 + x197 - x201 <= 10376897.7892232
 c201:  10800000 x.3.4.1 + x199 - x203 <= 10376897.7892232
 c203:  10800000 x.3.5.0 + x197 - x205 <= 10425263.7871271
 c205:  10800000 x.3.5.1 + x199 - x207 <= 10425263.7871271
 c207:  10800000 x.3.6.0 + x197 - x209 <= 10304893.5302462
 c209:  10800000 x.3.6.1 + x199 - x211 <= 10304893.5302462
 c211:  10800000 x.3.7.0 + x197 - x213 <= 9514959.90997121
 c213:  10800000 x.3.7.1 + x199 - x215 <= 9514959.90997121
 c215:  10800000 x.3.8.0 + x197 - x217 <= 9989558.64828242
 c217:  10800000 x.3.8.1 + x199 - x219 <= 9989558.64828242
 c219:  10800000 x.3.9.0 + x197 - x221 <= 10233027.4283309
 c221:  10800000 x.3.9.1 + x199 - x223 <= 10233027.4283309
 c223:  10800000 x.4.0.0 - x181 + x201 <= 10006703.6529643
 c225:  10800000 x.4.0.1 - x185 + x203 <= 10006703.6529643
 c227:  10800000 x.4.1.0 - x189 + x201 <= 10352064.9352452
 c229:  10800000 x.4.1.1 - x191 + x203 <= 10352064.9352452
 c231:  10800000 x.4.2.0 - x193 + x201 <= 9582330.43777751
 c233:  10800000 x.4.2.1 - x195 + x203 <= 9582330.43777751
 c235:  10800000 x.4.3.0 - x197 + x201 <= 10376897.7892232
 c237:  10800000 x.4.3.1 - x199 + x203 <= 10376897.7892232
 c239:  10800000 x.4.4.0 <= 10440000
 c241:  10800000 x.4.4.1 <= 10440000
 c243:  10800000 x.4.5.0 + x201 - x205 <= 10362920.8052288
 c245:  10800000 x.4.5.1 + x203 - x207 <= 10362920.8052288
 c247:  10800000 x.4.6.0 + x201 - x209 <= 10367984.9573482
 c249:  10800000 x.4.6.1 + x203 - x211 <= 10367984.9573482
 c251:  10800000 x.4.7.0 + x201 - x213 <= 9521845.64337687
 c253:  10800000 x.4.7.1 + x203 - x215 <= 9521845.64337687
 c255:  10800000 x.4.8.0 + x201 - x217 <= 9927741.68389042
 c257:  10800000 x.4.8.1 + x203 - x219 <= 9927741.68389042
 c259:  10800000 x.4.9.0 + x201 - x221 <= 10172585.6415208
 c261:  10800000 x.4.9.1 + x203 - x223 <= 10172585.6415208
 c263:  10800000 x.5.0.0 - x181 + x205 <= 10060002.1650122
 c265:  10800000 x.5.0.1 - x185 + x207 <= 10060002.1650122
 c267:  10800000 x.5.1.0 - x189 + x205 <= 10428178.115833
 c269:  10800000 x.5.1.1 - x191 + x207 <= 10428178.115833
 c271:  10800000 x.5.2.0 - x193 + x205 <= 9571872.41653563
 c273:  10800000 x.5.2.1 - x195 + x207 <= 9571872.41653563
 c275:  10800000 x.5.3.0 - x197 + x205 <= 10425263.7871271
 c277:  10800000 x.5.3.1 - x199 + x207 <= 10425263.7871271
 c279:  10800000 x.5.4.0 - x201 + x205 <= 10362920.8052288
 c281:  10800000 x.5.4.1 - x203 + x207 <= 10362920.8052288
 c283:  10800000 x.5.5.0 <= 10440000
 c285:  10800000 x.5.5.1 <= 10440000
 c287:  10800000 x.5.6.0 + x205 - x209 <= 10291064.2674713
 c289:  10800000 x.5.6.1 + x207 - x211 <= 10291064.2674713
 c291:  10800000 x.5.7.0 + x205 - x213 <= 9507794.21851397
 c293:  10800000 x.5.7.1 + x207 - x215 <= 9507794.21851397
 c295:  10800000 x.5.8.0 + x205 - x217 <= 10001865.5418906
 c297:  10800000 x.5.8.1 + x207 - x219 <= 10001865.5418906
 c299:  10800000 x.5.9.0 + x205 - x221 <= 10244168.2191185
 c301:  10800000 x.5.9.1 + x207 - x223 <= 10244168.2191185
 c303:  10800000 x.6.0.0 - x181 + x209 <= 9955330.27136637
 c305:  10800000 x.6.0.1 - x185 + x211 <= 9955330.27136637
 c307:  10800000 x.6.1.0 - x189 + x209 <= 10280490.0103594
 c309:  10800000 x.6.1.1 - x191 + x211 <= 10280490.0103594
 c311:  10800000 x.6.2.0 - x193 + x209 <= 9579270.40582275
 c313:  10800000 x.6.2.1 - x195 + x211 <= 9579270.40582275
 c315:  10800000 x.6.3.0 - x197 + x209 <= 10304893.5302462
 c317:  10800000 x.6.3.1 - x199 + x211 <= 10304893.5302462
 c319:  10800000 x.6.4.0 - x201 + x209 <= 10367984.9573482
 c321:  10800000 x.6.4.1 - x203 + x211 <= 10367984.9573482
 c323:  10800000 x.6.5.0 - x205 + x209 <= 10291064.2674713
 c325:  10800000 x.6.5.1 - x207 + x211 <= 10291064.2674713
 c327:  10800000 x.6.6.0 <= 10440000
 c329:  10800000 x.6.6.1 <= 10440000
 c331:  10800000 x.6.7.0 + x209 - x213 <= 9522614.75619372
 c333:  10800000 x.6.7.1 + x211 - x215 <= 9522614.75619372
 c335:  10800000 x.6.8.0 + x209 - x217 <= 9856575.32542851
 c337:  10800000 x.6.8.1 + x211 - x219 <= 9856575.32542851
 c339:  10800000 x.6.9.0 + x209 - x221 <= 10102068.1306309
 c341:  10800000 x.6.9.1 + x211 - x223 <= 10102068.1306309
 c343:  10800000 x.7.0.0 - x181 + x213 <= 9157211.46081956
 c345:  10800000 x.7.0.1 - x185 + x215 <= 9157211.46081956
 c347:  10800000 x.7.1.0 - x189 + x213 <= 9500494.30331554
 c349:  10800000 x.7.1.1 - x191 + x215 <= 9500494.30331554
 c351:  10800000 x.7.2.0 - x193 + x213 <= 10364726.7498012
 c353:  10800000 x.7.2.1 - x195 + x215 <= 10364726.7498012
 c355:  10800000 x.7.3.0 - x197 + x213 <= 9514959.90997121
 c357:  10800000 x.7.3.1 - x199 + x215 <= 9514959.90997121
 c359:  10800000 x.7.4.0 - x201 + x213 <= 9521845.64337687
 c361:  10800000 x.7.4.1 - x203 + x215 <= 9521845.64337687
 c363:  10800000 x.7.5.0 - x205 + x213 <= 9507794.21851397
 c365:  10800000 x.7.5.1 - x207 + x215 <= 9507794.21851397
 c367:  10800000 x.7.6.0 - x209 + x213 <= 9522614.75619372
 c369:  10800000 x.7.6.1 - x211 + x215 <= 9522614.75619372
 c371:  10800000 x.7.7.0 <= 10440000
 c373:  10800000 x.7.7.1 <= 10440000
 c375:  10800000 x.7.8.0 + x213 - x217 <= 9440874.54642696
 c377:  10800000 x.7.8.1 + x215 - x219 <= 9440874.54642696
 c379:  10800000 x.7.9.0 + x213 - x221 <= 9530848.53628927
 c381:  10800000 x.7.9.1 + x215 - x223 <= 9530848.53628927
 c383:  10800000 x.8.0.0 - x181 + x217 <= 9982543.63107711
 c385:  10800000 x.8.0.1 - x185 + x219 <= 9982543.63107711
 c387:  10800000 x.8.1.0 - x189 + x217 <= 10010542.5494567
 c389:  10800000 x.8.1.1 - x191 + x219 <= 10010542.5494567
 c391:  10800000 x.8.2.0 - x193 + x217 <= 9515898.32289943
 c393:  10800000 x.8.2.1 - x195 + x219 <= 9515898.32289943
 c395:  10800000 x.8.3.0 - x197 + x217 <= 9989558.64828242
 c397:  10800000 x.8.3.1 - x199 + x219 <= 9989558.64828242
 c399:  10800000 x.8.4.0 - x201 + x217 <= 9927741.68389042
 c401:  10800000 x.8.4.1 - x203 + x219 <= 9927741.68389042
 c403:  10800000 x.8.5.0 - x205 + x217 <= 10001865.5418906
 c405:  10800000 x.8.5.1 - x207 + x219 <= 10001865.5418906
 c407:  10800000 x.8.6.0 - x209 + x217 <= 9856575.32542851
 c409:  10800000 x.8.6.1 - x211 + x219 <= 9856575.32542851
 c411:  10800000 x.8.7.0 - x213 + x217 <= 9440874.54642696
 c413:  10800000 x.8.7.1 - x215 + x219 <= 9440874.54642696
 c415:  10800000 x.8.8.0 <= 10440000
 c417:  10800000 x.8.8.1 <= 10440000
 c419:  10800000 x.8.9.0 + x217 - x221 <= 10193943.6111643
 c421:  10800000 x.8.9.1 + x219 - x223 <= 10193943.6111643
 c423:  10800000 x.9.0.0 - x181 + x221 <= 10057113.2726262
 c425:  10800000 x.9.0.1 - x185 + x223 <= 10057113.2726262
 c427:  10800000 x.9.1.0 - x189 + x221 <= 10251444.9123923
 c429:  10800000 x.9.1.1 - x191 + x223 <= 10251444.9123923
 c431:  10800000 x.9.2.0 - x193 + x221 <= 9601986.84567854
 c433:  10800000 x.9.2.1 - x195 + x223 <= 9601986.84567854
 c435:  10800000 x.9.3.0 - x197 + x221 <= 10233027.4283309
 c437:  10800000 x.9.3.1 - x199 + x223 <= 10233027.4283309
 c439:  10800000 x.9.4.0 - x201 + x221 <= 10172585.6415208
 c441:  10800000 x.9.4.1 - x203 + x223 <= 10172585.6415208
 c443:  10800000 x.9.5.0 - x205 + x221 <= 10244168.2191185
 c445:  10800000 x.9.5.1 - x207 + x223 <= 10244168.2191185
 c447:  10800000 x.9.6.0 - x209 + x221 <= 10102068.1306309
 c449:  10800000 x.9.6.1 - x211 + x223 <= 10102068.1306309
 c451:  10800000 x.9.7.0 - x213 + x221 <= 9530848.53628927
 c453:  10800000 x.9.7.1 - x215 + x223 <= 9530848.53628927
 c455:  10800000 x.9.8.0 - x217 + x221 <= 10193943.6111643
 c457:  10800000 x.9.8.1 - x219 + x223 <= 10193943.6111643
 c459:  10800000 x.9.9.0 <= 10440000
 c461:  10800000 x.9.9.1 <= 10440000
 c463:  10 x.0.0.0 <= 10
 c465:  10 x.0.0.1 <= 10
 c467:  10 x.0.1.0 + x243 - x247 <= 9
 c469:  10 x.0.1.1 + x245 - x249 <= 9
 c471:  10 x.0.2.0 + x243 - x251 <= 9
 c473:  10 x.0.2.1 + x245 - x253 <= 9
 c475:  10 x.0.3.0 + x243 - x255 <= 9
 c477:  10 x.0.3.1 + x245 - x257 <= 9
 c479:  10 x.0.4.0 + x243 - x258 <= 9
 c481:  10 x.0.4.1 + x245 - x260 <= 9
 c483:  10 x.0.5.0 + x243 - x262 <= 11
 c485:  10 x.0.5.1 + x245 - x264 <= 11
 c487:  10 x.0.6.0 + x243 - x266 <= 11
 c489:  10 x.0.6.1 + x245 - x268 <= 11
 c491:  10 x.0.7.0 + x243 - x270 <= 11
 c493:  10 x.0.7.1 + x245 - x272 <= 11
 c495:  10 x.0.8.0 + x243 - x274 <= 11
 c497:  10 x.0.8.1 + x245 - x276 <= 11
 c499:  10 x.0.9.0 + x243 - x278 <= 10
 c501:  10 x.0.9.1 + x245 - x280 <= 10
 c503:  10 x.1.0.0 - x243 + x247 <= 10
 c505:  10 x.1.0.1 - x245 + x249 <= 10
 c507:  10 x.1.1.0 <= 9
 c509:  10 x.1.1.1 <= 9
 c511:  10 x.1.2.0 + x247 - x251 <= 9
 c513:  10 x.1.2.1 + x249 - x253 <= 9
 c515:  10 x.1.3.0 + x247 - x255 <= 9
 c517:  10 x.1.3.1 + x249 - x257 <= 9
 c519:  10 x.1.4.0 + x247 - x258 <= 9
 c521:  10 x.1.4.1 + x249 - x260 <= 9
 c523:  10 x.1.5.0 + x247 - x262 <= 11
 c525:  10 x.1.5.1 + x249 - x264 <= 11
 c527:  10 x.1.6.0 + x247 - x266 <= 11
 c529:  10 x.1.6.1 + x249 - x268 <= 11
 c531:  10 x.1.7.0 + x247 - x270 <= 11
 c533:  10 x.1.7.1 + x249 - x272 <= 11
 c535:  10 x.1.8.0 + x247 - x274 <= 11
 c537:  10 x.1.8.1 + x249 - x276 <= 11
 c539:  10 x.1.9.0 + x247 - x278 <= 10
 c541:  10 x.1.9.1 + x249 - x280 <= 10
 c543:  10 x.2.0.0 - x243 + x251 <= 10
 c545:  10 x.2.0.1 - x245 + x253 <= 10
 c547:  10 x.2.1.0 - x247 + x251 <= 9
 c549:  10 x.2.1.1 - x249 + x253 <= 9
 c551:  10 x.2.2.0 <= 9
 c553:  10 x.2.2.1 <= 9
 c555:  10 x.2.3.0 + x251 - x255 <= 9
 c557:  10 x.2.3.1 + x253 - x257 <= 9
 c559:  10 x.2.4.0 + x251 - x258 <= 9
 c561:  10 x.2.4.1 + x253 - x260 <= 9
 c563:  10 x.2.5.0 + x251 - x262 <= 11
 c565:  10 x.2.5.1 + x253 - x264 <= 11
 c567:  10 x.2.6.0 + x251 - x266 <= 11
 c569:  10 x.2.6.1 + x253 - x268 <= 11
 c571:  10 x.2.7.0 + x251 - x270 <= 11
 c573:  10 x.2.7.1 + x253 - x272 <= 11
 c575:  10 x.2.8.0 + x251 - x274 <= 11
 c577:  10 x.2.8.1 + x253 - x276 <= 11
 c579:  10 x.2.9.0 + x251 - x278 <= 10
 c581:  10 x.2.9.1 + x253 - x280 <= 10
 c583:  10 x.3.0.0 - x243 + x255 <= 10
 c585:  10 x.3.0.1 - x245 + x257 <= 10
 c587:  10 x.3.1.0 - x247 + x255 <= 9
 c589:  10 x.3.1.1 - x249 + x257 <= 9
 c591:  10 x.3.2.0 - x251 + x255 <= 9
 c593:  10 x.3.2.1 - x253 + x257 <= 9
 c595:  10 x.3.3.0 <= 9
 c597:  10 x.3.3.1 <= 9
 c599:  10 x.3.4.0 + x255 - x258 <= 9
 c601:  10 x.3.4.1 + x257 - x260 <= 9
 c603:  10 x.3.5.0 + x255 - x262 <= 11
 c605:  10 x.3.5.1 + x257 - x264 <= 11
 c607:  10 x.3.6.0 + x255 - x266 <= 11
 c609:  10 x.3.6.1 + x257 - x268 <= 11
 c611:  10 x.3.7.0 + x255 - x270 <= 11
 c613:  10 x.3.7.1 + x257 - x272 <= 11
 c615:  10 x.3.8.0 + x255 - x274 <= 11
 c617:  10 x.3.8.1 + x257 - x276 <= 11
 c619:  10 x.3.9.0 + x255 - x278 <= 10
 c621:  10 x.3.9.1 + x257 - x280 <= 10
 c623:  10 x.4.0.0 - x243 + x258 <= 10
 c625:  10 x.4.0.1 - x245 + x260 <= 10
 c627:  10 x.4.1.0 - x247 + x258 <= 9
 c629:  10 x.4.1.1 - x249 + x260 <= 9
 c631:  10 x.4.2.0 - x251 + x258 <= 9
 c633:  10 x.4.2.1 - x253 + x260 <= 9
 c635:  10 x.4.3.0 - x255 + x258 <= 9
 c637:  10 x.4.3.1 - x257 + x260 <= 9
 c639:  10 x.4.4.0 <= 9
 c641:  10 x.4.4.1 <= 9
 c643:  10 x.4.5.0 + x258 - x262 <= 11
 c645:  10 x.4.5.1 + x260 - x264 <= 11
 c647:  10 x.4.6.0 + x258 - x266 <= 11
 c649:  10 x.4.6.1 + x260 - x268 <= 11
 c651:  10 x.4.7.0 + x258 - x270 <= 11
 c653:  10 x.4.7.1 + x260 - x272 <= 11
 c655:  10 x.4.8.0 + x258 - x274 <= 11
 c657:  10 x.4.8.1 + x260 - x276 <= 11
 c659:  10 x.4.9.0 + x258 - x278 <= 10
 c661:  10 x.4.9.1 + x260 - x280 <= 10
 c663:  10 x.5.0.0 - x243 + x262 <= 10
 c665:  10 x.5.0.1 - x245 + x264 <= 10
 c667:  10 x.5.1.0 - x247 + x262 <= 9
 c669:  10 x.5.1.1 - x249 + x264 <= 9
 c671:  10 x.5.2.0 - x251 + x262 <= 9
 c673:  10 x.5.2.1 - x253 + x264 <= 9
 c675:  10 x.5.3.0 - x255 + x262 <= 9
 c677:  10 x.5.3.1 - x257 + x264 <= 9
 c679:  10 x.5.4.0 - x258 + x262 <= 9
 c681:  10 x.5.4.1 - x260 + x264 <= 9
 c683:  10 x.5.5.0 <= 11
 c685:  10 x.5.5.1 <= 11
 c687:  10 x.5.6.0 + x262 - x266 <= 11
 c689:  10 x.5.6.1 + x264 - x268 <= 11
 c691:  10 x.5.7.0 + x262 - x270 <= 11
 c693:  10 x.5.7.1 + x264 - x272 <= 11
 c695:  10 x.5.8.0 + x262 - x274 <= 11
 c697:  10 x.5.8.1 + x264 - x276 <= 11
 c699:  10 x.5.9.0 + x262 - x278 <= 10
 c701:  10 x.5.9.1 + x264 - x280 <= 10
 c703:  10 x.6.0.0 - x243 + x266 <= 10
 c705:  10 x.6.0.1 - x245 + x268 <= 10
 c707:  10 x.6.1.0 - x247 + x266 <= 9
 c709:  10 x.6.1.1 - x249 + x268 <= 9
 c711:  10 x.6.2.0 - x251 + x266 <= 9
 c713:  10 x.6.2.1 - x253 + x268 <= 9
 c715:  10 x.6.3.0 - x255 + x266 <= 9
 c717:  10 x.6.3.1 - x257 + x268 <= 9
 c719:  10 x.6.4.0 - x258 + x266 <= 9
 c721:  10 x.6.4.1 - x260 + x268 <= 9
 c723:  10 x.6.5.0 - x262 + x266 <= 11
 c725:  10 x.6.5.1 - x264 + x268 <= 11
 c727:  10 x.6.6.0 <= 11
 c729:  10 x.6.6.1 <= 11
 c731:  10 x.6.7.0 + x266 - x270 <= 11
 c733:  10 x.6.7.1 + x268 - x272 <= 11
 c735:  10 x.6.8.0 + x266 - x274 <= 11
 c737:  10 x.6.8.1 + x268 - x276 <= 11
 c739:  10 x.6.9.0 + x266 - x278 <= 10
 c741:  10 x.6.9.1 + x268 - x280 <= 10
 c743:  10 x.7.0.0 - x243 + x270 <= 10
 c745:  10 x.7.0.1 - x245 + x272 <= 10
 c747:  10 x.7.1.0 - x247 + x270 <= 9
 c749:  10 x.7.1.1 - x249 + x272 <= 9
 c751:  10 x.7.2.0 - x251 + x270 <= 9
 c753:  10 x.7.2.1 - x253 + x272 <= 9
 c755:  10 x.7.3.0 - x255 + x270 <= 9
 c757:  10 x.7.3.1 - x257 + x272 <= 9
 c759:  10 x.7.4.0 - x258 + x270 <= 9
 c761:  10 x.7.4.1 - x260 + x272 <= 9
 c763:  10 x.7.5.0 - x262 + x270 <= 11
 c765:  10 x.7.5.1 - x264 + x272 <= 11
 c767:  10 x.7.6.0 - x266 + x270 <= 11
 c769:  10 x.7.6.1 - x268 + x272 <= 11
 c771:  10 x.7.7.0 <= 11
 c773:  10 x.7.7.1 <= 11
 c775:  10 x.7.8.0 + x270 - x274 <= 11
 c777:  10 x.7.8.1 + x272 - x276 <= 11
 c779:  10 x.7.9.0 + x270 - x278 <= 10
 c781:  10 x.7.9.1 + x272 - x280 <= 10
 c783:  10 x.8.0.0 - x243 + x274 <= 10
 c785:  10 x.8.0.1 - x245 + x276 <= 10
 c787:  10 x.8.1.0 - x247 + x274 <= 9
 c789:  10 x.8.1.1 - x249 + x276 <= 9
 c791:  10 x.8.2.0 - x251 + x274 <= 9
 c793:  10 x.8.2.1 - x253 + x276 <= 9
 c795:  10 x.8.3.0 - x255 + x274 <= 9
 c797:  10 x.8.3.1 - x257 + x276 <= 9
 c799:  10 x.8.4.0 - x258 + x274 <= 9
 c801:  10 x.8.4.1 - x260 + x276 <= 9
 c803:  10 x.8.5.0 - x262 + x274 <= 11
 c805:  10 x.8.5.1 - x264 + x276 <= 11
 c807:  10 x.8.6.0 - x266 + x274 <= 11
 c809:  10 x.8.6.1 - x268 + x276 <= 11
 c811:  10 x.8.7.0 - x270 + x274 <= 11
 c813:  10 x.8.7.1 - x272 + x276 <= 11
 c815:  10 x.8.8.0 <= 11
 c817:  10 x.8.8.1 <= 11
 c819:  10 x.8.9.0 + x274 - x278 <= 10
 c821:  10 x.8.9.1 + x276 - x280 <= 10
 c823:  10 x.9.0.0 - x243 + x278 <= 10
 c825:  10 x.9.0.1 - x245 + x280 <= 10
 c827:  10 x.9.1.0 - x247 + x278 <= 9
 c829:  10 x.9.1.1 - x249 + x280 <= 9
 c831:  10 x.9.2.0 - x251 + x278 <= 9
 c833:  10 x.9.2.1 - x253 + x280 <= 9
 c835:  10 x.9.3.0 - x255 + x278 <= 9
 c837:  10 x.9.3.1 - x257 + x280 <= 9
 c839:  10 x.9.4.0 - x258 + x278 <= 9
 c841:  10 x.9.4.1 - x260 + x280 <= 9
 c843:  10 x.9.5.0 - x262 + x278 <= 11
 c845:  10 x.9.5.1 - x264 + x280 <= 11
 c847:  10 x.9.6.0 - x266 + x278 <= 11
 c849:  10 x.9.6.1 - x268 + x280 <= 11
 c851:  10 x.9.7.0 - x270 + x278 <= 11
 c853:  10 x.9.7.1 - x272 + x280 <= 11
 c855:  10 x.9.8.0 - x274 + x278 <= 11
 c857:  10 x.9.8.1 - x276 + x280 <= 11
 c859:  10 x.9.9.0 <= 10
 c861:  10 x.9.9.1 <= 10
 c863:  - x189 + x205 - x282  = 360000
 c865:  - x191 + x207 - x284  = 360000
 c867:  - x193 + x209 - x286  = 360000
 c869:  - x195 + x211 - x288  = 360000
 c871:  - x197 + x213 - x290  = 360000
 c873:  - x199 + x215 - x292  = 360000
 c875:  - x201 + x217 - x294  = 360000
 c877:  - x203 + x219 - x296  = 360000
 c879:  - x181 + x221 <= 32400000
 c881:  - x185 + x223 <= 32400000
 c883:  x181 <= 1439819301000
 c885:  x181 >= 1439815701000
 c887:  x185 <= 1439819301000
 c889:  x185 >= 1439815701000
 c891:  x189 <= 1439819301000
 c893:  x189 >= 1439815701000
 c895:  x191 <= 1439819301000
 c897:  x191 >= 1439815701000
 c899:  x193 <= 1439821821000
 c901:  x193 >= 1439818221000
 c903:  x195 <= 1439821821000
 c905:  x195 >= 1439818221000
 c907:  x197 <= 1439823595000
 c909:  x197 >= 1439819995000
 c911:  x199 <= 1439823595000
 c913:  x199 >= 1439819995000
 c915:  x201 <= 1439826316000
 c917:  x201 >= 1439822716000
 c919:  x203 <= 1439826316000
 c921:  x203 >= 1439822716000
 c923:  x205 <= 1439819301000
 c925:  x205 >= 1439815701000
 c927:  x207 <= 1439819301000
 c929:  x207 >= 1439815701000
 c931:  x209 <= 1439821821000
 c933:  x209 >= 1439818221000
 c935:  x211 <= 1439821821000
 c937:  x211 >= 1439818221000
 c939:  x213 <= 1439823595000
 c941:  x213 >= 1439819995000
 c943:  x215 <= 1439823595000
 c945:  x215 >= 1439819995000
 c947:  x217 <= 1439826316000
 c949:  x217 >= 1439822716000
 c951:  x219 <= 1439826316000
 c953:  x219 >= 1439822716000
 c955:  x221 <= 1439826316000
 c957:  x221 >= 1439822716000
 c959:  x223 <= 1439826316000
 c961:  x223 >= 1439822716000
 c963:  x282 <= 3600000
 c965:  x284 <= 3600000
 c967:  x286 <= 3600000
 c969:  x288 <= 3600000
 c971:  x290 <= 3600000
 c973:  x292 <= 3600000
 c975:  x294 <= 3600000
 c977:  x296 <= 3600000
 c979:  - x282 <= -11821.8841669961
 c981:  - x284 <= -11821.8841669961
 c983:  - x286 <= -860729.594177253
 c985:  - x288 <= -860729.594177253
 c987:  - x290 <= -925040.090028785
 c989:  - x292 <= -925040.090028785
 c991:  - x294 <= -512258.316109581
 c993:  - x296 <= -512258.316109581
 c995:  x243 <= 0
 c997:  x243 <= 10
 c999:  x245 <= 0
 c1001: x245 <= 10
 c1003: x247 <= 1
 c1005: x247 <= 10
 c1007: x249 <= 1
 c1009: x249 <= 10
 c1011: x251 <= 1
 c1013: x251 <= 10
 c1015: x253 <= 1
 c1017: x253 <= 10
 c1019: x255 <= 1
 c1021: x255 <= 10
 c1023: x257 <= 1
 c1025: x257 <= 10
 c1027: x258 <= 1
 c1029: x258 <= 10
 c1031: x260 <= 1
 c1033: x260 <= 10
 c1035: x262 <= 0
 c1037: x262 <= 9
 c1039: x264 <= 0
 c1041: x264 <= 9
 c1043: x266 <= 0
 c1045: x266 <= 9
 c1047: x268 <= 0
 c1049: x268 <= 9
 c1051: x270 <= 0
 c1053: x270 <= 9
 c1055: x272 <= 0
 c1057: x272 <= 9
 c1059: x274 <= 0
 c1061: x274 <= 9
 c1063: x276 <= 0
 c1065: x276 <= 9
 c1067: x278 <= 0
 c1069: x278 <= 10
 c1071: x280 <= 0
 c1073: x280 <= 10
Bounds
 0 <= x.0.1.0 <= 1
 0 <= x.0.2.0 <= 1
 0 <= x.0.3.0 <= 1
 0 <= x.0.4.0 <= 1
 0 <= x.0.5.0 <= 1
 0 <= x.0.6.0 <= 1
 0 <= x.0.7.0 <= 1
 0 <= x.0.8.0 <= 1
 0 <= x.0.9.0 <= 1
 0 <= x.1.0.0 <= 1
 0 <= x.1.2.0 <= 1
 0 <= x.1.3.0 <= 1
 0 <= x.1.4.0 <= 1
 0 <= x.1.5.0 <= 1
 0 <= x.1.6.0 <= 1
 0 <= x.1.7.0 <= 1
 0 <= x.1.8.0 <= 1
 0 <= x.1.9.0 <= 1
 0 <= x.2.0.0 <= 1
 0 <= x.2.1.0 <= 1
 0 <= x.2.3.0 <= 1
 0 <= x.2.4.0 <= 1
 0 <= x.2.5.0 <= 1
 0 <= x.2.6.0 <= 1
 0 <= x.2.7.0 <= 1
 0 <= x.2.8.0 <= 1
 0 <= x.2.9.0 <= 1
 0 <= x.3.0.0 <= 1
 0 <= x.3.1.0 <= 1
 0 <= x.3.2.0 <= 1
 0 <= x.3.4.0 <= 1
 0 <= x.3.5.0 <= 1
 0 <= x.3.6.0 <= 1
 0 <= x.3.7.0 <= 1
 0 <= x.3.8.0 <= 1
 0 <= x.3.9.0 <= 1
 0 <= x.4.0.0 <= 1
 0 <= x.4.1.0 <= 1
 0 <= x.4.2.0 <= 1
 0 <= x.4.3.0 <= 1
 0 <= x.4.5.0 <= 1
 0 <= x.4.6.0 <= 1
 0 <= x.4.7.0 <= 1
 0 <= x.4.8.0 <= 1
 0 <= x.4.9.0 <= 1
 0 <= x.5.0.0 <= 1
 0 <= x.5.1.0 <= 1
 0 <= x.5.2.0 <= 1
 0 <= x.5.3.0 <= 1
 0 <= x.5.4.0 <= 1
 0 <= x.5.6.0 <= 1
 0 <= x.5.7.0 <= 1
 0 <= x.5.8.0 <= 1
 0 <= x.5.9.0 <= 1
 0 <= x.6.0.0 <= 1
 0 <= x.6.1.0 <= 1
 0 <= x.6.2.0 <= 1
 0 <= x.6.3.0 <= 1
 0 <= x.6.4.0 <= 1
 0 <= x.6.5.0 <= 1
 0 <= x.6.7.0 <= 1
 0 <= x.6.8.0 <= 1
 0 <= x.6.9.0 <= 1
 0 <= x.7.0.0 <= 1
 0 <= x.7.1.0 <= 1
 0 <= x.7.2.0 <= 1
 0 <= x.7.3.0 <= 1
 0 <= x.7.4.0 <= 1
 0 <= x.7.5.0 <= 1
 0 <= x.7.6.0 <= 1
 0 <= x.7.8.0 <= 1
 0 <= x.7.9.0 <= 1
 0 <= x.8.0.0 <= 1
 0 <= x.8.1.0 <= 1
 0 <= x.8.2.0 <= 1
 0 <= x.8.3.0 <= 1
 0 <= x.8.4.0 <= 1
 0 <= x.8.5.0 <= 1
 0 <= x.8.6.0 <= 1
 0 <= x.8.7.0 <= 1
 0 <= x.8.9.0 <= 1
 0 <= x.9.0.0 <= 1
 0 <= x.9.1.0 <= 1
 0 <= x.9.2.0 <= 1
 0 <= x.9.3.0 <= 1
 0 <= x.9.4.0 <= 1
 0 <= x.9.5.0 <= 1
 0 <= x.9.6.0 <= 1
 0 <= x.9.7.0 <= 1
 0 <= x.9.8.0 <= 1
 0 <= x.0.1.1 <= 1
 0 <= x.0.2.1 <= 1
 0 <= x.0.3.1 <= 1
 0 <= x.0.4.1 <= 1
 0 <= x.0.5.1 <= 1
 0 <= x.0.6.1 <= 1
 0 <= x.0.7.1 <= 1
 0 <= x.0.8.1 <= 1
 0 <= x.0.9.1 <= 1
 0 <= x.1.0.1 <= 1
 0 <= x.1.2.1 <= 1
 0 <= x.1.3.1 <= 1
 0 <= x.1.4.1 <= 1
 0 <= x.1.5.1 <= 1
 0 <= x.1.6.1 <= 1
 0 <= x.1.7.1 <= 1
 0 <= x.1.8.1 <= 1
 0 <= x.1.9.1 <= 1
 0 <= x.2.0.1 <= 1
 0 <= x.2.1.1 <= 1
 0 <= x.2.3.1 <= 1
 0 <= x.2.4.1 <= 1
 0 <= x.2.5.1 <= 1
 0 <= x.2.6.1 <= 1
 0 <= x.2.7.1 <= 1
 0 <= x.2.8.1 <= 1
 0 <= x.2.9.1 <= 1
 0 <= x.3.0.1 <= 1
 0 <= x.3.1.1 <= 1
 0 <= x.3.2.1 <= 1
 0 <= x.3.4.1 <= 1
 0 <= x.3.5.1 <= 1
 0 <= x.3.6.1 <= 1
 0 <= x.3.7.1 <= 1
 0 <= x.3.8.1 <= 1
 0 <= x.3.9.1 <= 1
 0 <= x.4.0.1 <= 1
 0 <= x.4.1.1 <= 1
 0 <= x.4.2.1 <= 1
 0 <= x.4.3.1 <= 1
 0 <= x.4.5.1 <= 1
 0 <= x.4.6.1 <= 1
 0 <= x.4.7.1 <= 1
 0 <= x.4.8.1 <= 1
 0 <= x.4.9.1 <= 1
 0 <= x.5.0.1 <= 1
 0 <= x.5.1.1 <= 1
 0 <= x.5.2.1 <= 1
 0 <= x.5.3.1 <= 1
 0 <= x.5.4.1 <= 1
 0 <= x.5.6.1 <= 1
 0 <= x.5.7.1 <= 1
 0 <= x.5.8.1 <= 1
 0 <= x.5.9.1 <= 1
 0 <= x.6.0.1 <= 1
 0 <= x.6.1.1 <= 1
 0 <= x.6.2.1 <= 1
 0 <= x.6.3.1 <= 1
 0 <= x.6.4.1 <= 1
 0 <= x.6.5.1 <= 1
 0 <= x.6.7.1 <= 1
 0 <= x.6.8.1 <= 1
 0 <= x.6.9.1 <= 1
 0 <= x.7.0.1 <= 1
 0 <= x.7.1.1 <= 1
 0 <= x.7.2.1 <= 1
 0 <= x.7.3.1 <= 1
 0 <= x.7.4.1 <= 1
 0 <= x.7.5.1 <= 1
 0 <= x.7.6.1 <= 1
 0 <= x.7.8.1 <= 1
 0 <= x.7.9.1 <= 1
 0 <= x.8.0.1 <= 1
 0 <= x.8.1.1 <= 1
 0 <= x.8.2.1 <= 1
 0 <= x.8.3.1 <= 1
 0 <= x.8.4.1 <= 1
 0 <= x.8.5.1 <= 1
 0 <= x.8.6.1 <= 1
 0 <= x.8.7.1 <= 1
 0 <= x.8.9.1 <= 1
 0 <= x.9.0.1 <= 1
 0 <= x.9.1.1 <= 1
 0 <= x.9.2.1 <= 1
 0 <= x.9.3.1 <= 1
 0 <= x.9.4.1 <= 1
 0 <= x.9.5.1 <= 1
 0 <= x.9.6.1 <= 1
 0 <= x.9.7.1 <= 1
 0 <= x.9.8.1 <= 1
 0 <= x.0.0.0 <= 1
 0 <= x.0.0.1 <= 1
 0 <= x.1.1.0 <= 1
 0 <= x.1.1.1 <= 1
 0 <= x.2.2.0 <= 1
 0 <= x.2.2.1 <= 1
 0 <= x.3.3.0 <= 1
 0 <= x.3.3.1 <= 1
 0 <= x.4.4.0 <= 1
 0 <= x.4.4.1 <= 1
 0 <= x.5.5.0 <= 1
 0 <= x.5.5.1 <= 1
 0 <= x.6.6.0 <= 1
 0 <= x.6.6.1 <= 1
 0 <= x.7.7.0 <= 1
 0 <= x.7.7.1 <= 1
 0 <= x.8.8.0 <= 1
 0 <= x.8.8.1 <= 1
 0 <= x.9.9.0 <= 1
 0 <= x.9.9.1 <= 1
Binaries
 x.0.1.0  x.0.2.0  x.0.3.0  x.0.4.0  x.0.5.0  x.0.6.0  x.0.7.0  x.0.8.0 
 x.0.9.0  x.1.0.0  x.1.2.0  x.1.3.0  x.1.4.0  x.1.5.0  x.1.6.0  x.1.7.0 
 x.1.8.0  x.1.9.0  x.2.0.0  x.2.1.0  x.2.3.0  x.2.4.0  x.2.5.0  x.2.6.0 
 x.2.7.0  x.2.8.0  x.2.9.0  x.3.0.0  x.3.1.0  x.3.2.0  x.3.4.0  x.3.5.0 
 x.3.6.0  x.3.7.0  x.3.8.0  x.3.9.0  x.4.0.0  x.4.1.0  x.4.2.0  x.4.3.0 
 x.4.5.0  x.4.6.0  x.4.7.0  x.4.8.0  x.4.9.0  x.5.0.0  x.5.1.0  x.5.2.0 
 x.5.3.0  x.5.4.0  x.5.6.0  x.5.7.0  x.5.8.0  x.5.9.0  x.6.0.0  x.6.1.0 
 x.6.2.0  x.6.3.0  x.6.4.0  x.6.5.0  x.6.7.0  x.6.8.0  x.6.9.0  x.7.0.0 
 x.7.1.0  x.7.2.0  x.7.3.0  x.7.4.0  x.7.5.0  x.7.6.0  x.7.8.0  x.7.9.0 
 x.8.0.0  x.8.1.0  x.8.2.0  x.8.3.0  x.8.4.0  x.8.5.0  x.8.6.0  x.8.7.0 
 x.8.9.0  x.9.0.0  x.9.1.0  x.9.2.0  x.9.3.0  x.9.4.0  x.9.5.0  x.9.6.0 
 x.9.7.0  x.9.8.0  x.0.1.1  x.0.2.1  x.0.3.1  x.0.4.1  x.0.5.1  x.0.6.1 
 x.0.7.1  x.0.8.1  x.0.9.1  x.1.0.1  x.1.2.1  x.1.3.1  x.1.4.1  x.1.5.1 
 x.1.6.1  x.1.7.1  x.1.8.1  x.1.9.1  x.2.0.1  x.2.1.1  x.2.3.1  x.2.4.1 
 x.2.5.1  x.2.6.1  x.2.7.1  x.2.8.1  x.2.9.1  x.3.0.1  x.3.1.1  x.3.2.1 
 x.3.4.1  x.3.5.1  x.3.6.1  x.3.7.1  x.3.8.1  x.3.9.1  x.4.0.1  x.4.1.1 
 x.4.2.1  x.4.3.1  x.4.5.1  x.4.6.1  x.4.7.1  x.4.8.1  x.4.9.1  x.5.0.1 
 x.5.1.1  x.5.2.1  x.5.3.1  x.5.4.1  x.5.6.1  x.5.7.1  x.5.8.1  x.5.9.1 
 x.6.0.1  x.6.1.1  x.6.2.1  x.6.3.1  x.6.4.1  x.6.5.1  x.6.7.1  x.6.8.1 
 x.6.9.1  x.7.0.1  x.7.1.1  x.7.2.1  x.7.3.1  x.7.4.1  x.7.5.1  x.7.6.1 
 x.7.8.1  x.7.9.1  x.8.0.1  x.8.1.1  x.8.2.1  x.8.3.1  x.8.4.1  x.8.5.1 
 x.8.6.1  x.8.7.1  x.8.9.1  x.9.0.1  x.9.1.1  x.9.2.1  x.9.3.1  x.9.4.1 
 x.9.5.1  x.9.6.1  x.9.7.1  x.9.8.1  x.0.0.0  x.0.0.1  x.1.1.0  x.1.1.1 
 x.2.2.0  x.2.2.1  x.3.3.0  x.3.3.1  x.4.4.0  x.4.4.1  x.5.5.0  x.5.5.1 
 x.6.6.0  x.6.6.1  x.7.7.0  x.7.7.1  x.8.8.0  x.8.8.1  x.9.9.0  x.9.9.1 
End
